n_nurses =  25;
sched_period =  28;
n_shifts =  3;
nurses_coverage = array2d(period, shifts, [
3, 8, 4,
6, 6, 2,
3, 3, 6,
5, 2, 6,
6, 6, 2,
7, 3, 3,
6, 6, 2,
6, 6, 2,
4, 5, 2,
7, 5, 2,
6, 2, 4,
6, 8, 3,
2, 4, 6,
6, 5, 2,
0, 0, 0,
2, 2, 1,
5, 6, 2,
3, 3, 1,
8, 3, 4,
4, 3, 1,
4, 2, 1,
4, 2, 1,
4, 3, 1,
1, 1, 0,
5, 4, 2,
1, 1, 0,
2, 2, 1,
4, 8, 3]);
